; crossover-right-arm-stretchXpassive-external-rotation
(set-info :status unknown)
(set-logic QF_AUFLIRA)
(declare-fun |HandLeft Norm| () Real)
(declare-fun |HandLeft Z| () Real)
(declare-fun |SpineMid Norm| () Real)
(declare-fun |SpineMid Z| () Real)
(declare-fun |SpineShoulder Norm| () Real)
(declare-fun |SpineShoulder Z| () Real)
(declare-fun |ShoulderLeft Norm| () Real)
(declare-fun |ShoulderLeft Z| () Real)
(declare-fun |ElbowLeft Norm| () Real)
(declare-fun |WristLeft Norm| () Real)
(declare-fun |ElbowRight Norm| () Real)
(declare-fun |ShoulderRight Norm| () Real)
(declare-fun |ShoulderRight Z| () Real)
(declare-fun |HandLeft Y| () Real)
(declare-fun |SpineMid Y| () Real)
(declare-fun |SpineShoulder Y| () Real)
(declare-fun |ShoulderLeft Y| () Real)
(declare-fun |ShoulderRight Y| () Real)
(declare-fun |HandLeft X| () Real)
(declare-fun |SpineMid X| () Real)
(declare-fun |SpineShoulder X| () Real)
(declare-fun |ShoulderLeft X| () Real)
(declare-fun |ShoulderRight X| () Real)
(declare-fun |ThumbRight Z| () Real)
(declare-fun |ThumbRight Y| () Real)
(declare-fun |ThumbRight X| () Real)
(assert
(let (($x6883 (and true true)))
(let (($x9026 (and $x6883 true)))
(let (($x13771 (and $x9026 true)))
(let (($x9593 (and $x13771 true)))
(let ((?x5357 (* |HandLeft Z| |HandLeft Norm|)))
(let ((?x159 (* |SpineMid Z| |SpineMid Norm|)))
(let ((?x435 (* |SpineShoulder Z| |SpineShoulder Norm|)))
(let ((?x420 (* |ShoulderLeft Z| |ShoulderLeft Norm|)))
(let ((?x7599 (* 0.0 |ElbowLeft Norm|)))
(let ((?x3003 (+ (+ (+ (+ (+ 0.0 ?x5357) (* 0.0 |WristLeft Norm|)) ?x7599) ?x420) ?x435)))
(let ((?x2109 (* 0.0 0.0)))
(let ((?x1304 (* 1.0 (~ 1.0))))
(let ((?x3066 (+ ?x1304 ?x2109)))
(let ((?x5667 (* ?x3066 |ElbowRight Norm|)))
(let ((?x10801 (+ (+ (+ (+ 0.0 ?x5667) (* |ShoulderRight Z| |ShoulderRight Norm|)) ?x435) ?x159)))
(let ((?x4486 (- (+ ?x10801 ?x5667) (+ (+ ?x3003 ?x159) ?x5357))))
(let ((?x14121 (ite (>= ?x4486 0.0) ?x4486 (- 0.0 ?x4486))))
(let ((?x5556 (* |HandLeft Y| |HandLeft Norm|)))
(let ((?x443 (* |SpineMid Y| |SpineMid Norm|)))
(let ((?x427 (* |SpineShoulder Y| |SpineShoulder Norm|)))
(let ((?x417 (* |ShoulderLeft Y| |ShoulderLeft Norm|)))
(let ((?x6432 (* (~ 1.0) |ElbowLeft Norm|)))
(let ((?x8030 (+ (+ (+ (+ (+ 0.0 ?x5556) (* (~ 1.0) |WristLeft Norm|)) ?x6432) ?x417) ?x427)))
(let ((?x2389 (* (~ 1.0) 0.0)))
(let ((?x3991 (* 0.0 (~ 1.0))))
(let ((?x11678 (+ ?x3991 ?x2389)))
(let ((?x8988 (* ?x11678 |ElbowRight Norm|)))
(let ((?x4732 (+ (+ (+ (+ 0.0 ?x8988) (* |ShoulderRight Y| |ShoulderRight Norm|)) ?x427) ?x443)))
(let ((?x2837 (- (+ ?x4732 ?x8988) (+ (+ ?x8030 ?x443) ?x5556))))
(let ((?x8173 (ite (>= ?x2837 0.0) ?x2837 (- 0.0 ?x2837))))
(let ((?x5403 (* |HandLeft X| |HandLeft Norm|)))
(let ((?x441 (* |SpineMid X| |SpineMid Norm|)))
(let ((?x426 (* |SpineShoulder X| |SpineShoulder Norm|)))
(let ((?x416 (* |ShoulderLeft X| |ShoulderLeft Norm|)))
(let ((?x4621 (+ (+ (+ (+ (+ 0.0 ?x5403) (* 0.0 |WristLeft Norm|)) ?x7599) ?x416) ?x426)))
(let ((?x5041 (* 0.0 |ElbowRight Norm|)))
(let ((?x6735 (+ (+ (+ (+ 0.0 ?x5041) (* |ShoulderRight X| |ShoulderRight Norm|)) ?x426) ?x441)))
(let ((?x7034 (+ ?x6735 ?x5041)))
(let ((?x9764 (- ?x7034 (+ (+ ?x4621 ?x441) ?x5403))))
(let ((?x9682 (ite (>= ?x9764 0.0) ?x9764 (- 0.0 ?x9764))))
(let ((?x1038 (ite (>= ?x9682 ?x8173) ?x9682 ?x8173)))
(let ((?x9194 (- |ThumbRight Z| |ThumbRight Z|)))
(let ((?x8486 (- 0.0 ?x9194)))
(let (($x6679 (>= ?x9194 0.0)))
(let ((?x8796 (ite $x6679 ?x9194 ?x8486)))
(let ((?x7398 (- |ThumbRight Y| |ThumbRight Y|)))
(let ((?x2945 (- 0.0 ?x7398)))
(let (($x2946 (>= ?x7398 0.0)))
(let ((?x10061 (ite $x2946 ?x7398 ?x2945)))
(let ((?x9143 (- |ThumbRight X| |ThumbRight X|)))
(let ((?x8632 (- 0.0 ?x9143)))
(let (($x4961 (>= ?x9143 0.0)))
(let ((?x11066 (ite $x4961 ?x9143 ?x8632)))
(let (($x9863 (>= ?x11066 ?x10061)))
(let ((?x2010 (ite $x9863 ?x11066 ?x10061)))
(let (($x8858 (>= ?x2010 ?x8796)))
(let ((?x7351 (ite $x8858 ?x2010 ?x8796)))
(let (($x10727 (< ?x7351 15.0)))
(let (($x9765 (and $x10727)))
(and $x9765 (and $x6883 (and true (< (ite (>= ?x1038 ?x14121) ?x1038 ?x14121) (/ 1.0 5.0)))) $x9593)))))))))))))))))))))))))))))))))))))))))))))))))))))))))))))
(check-sat)
